11111111111111111111111111111
10100000000010001000000000001
10111011111110101010111011111
10001000100010101010001000101
10111110101111101011111111101
10000000101000000010100010001
10111110101011111110111010111
10100000000000100000000000001
11111110111011101010101111101
10100010101010001010100010001
10111010101111101111111011101
10001000000000000000001000101
11101011111011101011101111111
10000010001010001010000000001
11101010111111111111111011111
10001000101010100000100010101
11111011101010101011111110101
10000010100010101010000010001
11101010101110101111101111101
10001010000000000000001000001
11101110111110111011111111101
10001000001010001010101010101
11101011111011101110101010101
10000000101010101010101000001
10111011101010111010101010111
10101000000000000000100010001
11101011111111111111101111101
10000000000000000000000000101
11111111111111111111111111111
